50
    1   152   415
    2   460   464
    3   434   874
    4   874   895
    5   379   748
    6   407   437
    7   963   429
    8   145   543
    9   544   861
   10    64   878
   11     9   355
   12    57   383
   13   205   716
   14   472   184
   15   313    28
   16   426   128
   17   488   725
   18   432   940
   19   212   889
   20    39   530
   21   275    53
   22   781   723
   23   926   876
   24   958   754
   25   123   940
   26   884   116
   27   842   658
   28   621   755
   29   252   253
   30   158   395
   31   183   993
   32   134   663
   33   470   667
   34   421   313
   35   301   548
   36   139   413
   37   355   724
   38   957   648
   39   176   700
   40   817   434
   41   910   223
   42   171   157
   43   475     6
   44    33   145
   45   620   935
   46   241   294
   47   406   913
   48    98   629
   49   494   495
   50   671   652
22914
